# Solution for model x1
# Objective value = 1.4735183070388406e+04
x2 0
x3 0
x4 0
x5 0
x6 0
x7 0
x8 0
x9 0
x10 0
x11 0
x12 0
x13 0
x14 0
x15 0
x16 0
x17 0
x18 0
x19 0
x20 0
x21 0
x22 0
x23 0
x24 0
x25 0
x26 0
x27 0
x28 0
x29 0
x30 0
x31 0
x32 0
x33 0
x34 0
x35 0
x36 0
x37 0
x38 0
x39 0
x40 0
x41 0
x42 0
x43 0
x44 0
x45 0
x46 0
x47 0
x48 0
x49 0
x50 0
x51 0
x52 0
x53 0
x54 0
x55 0
x56 0
x57 0
x58 0
x59 0
x60 0
x61 0
x62 0
x63 0
x64 0
x65 0
x66 0
x67 0
x68 0
x69 0
x70 0
x71 0
x72 0
x73 0
x74 0
x75 0
x76 0
x77 0
x78 0
x79 0
x80 0
x81 0
x82 0
x83 0
x84 0
x85 0
x86 0
x87 0
x88 0
x89 0
x90 0
x91 0
x92 0
x93 0
x94 0
x95 0
x96 0
x97 0
x98 0
x99 0
x100 0
x101 0
x102 0
x103 0
x104 0
x105 0
x106 0
x107 0
x108 0
x109 0
x110 0
x111 0
x112 0
x113 0
x114 0
x115 0
x116 0
x117 0
x118 0
x119 0
x120 0
x121 0
x122 0
x123 0
x124 0
x125 0
x126 0
x127 0
x128 0
x129 0
x130 0
x131 0
x132 0
x133 0
x134 0
x135 0
x136 0
x137 0
x138 0
x139 0
x140 0
x141 0
x142 0
x143 0
x144 0
x145 0
x146 0
x147 0
x148 0
x149 0
x150 0
x151 0
x152 0
x153 0
x154 0
x155 0
x156 0
x157 0
x158 0
x159 0
x160 0
x161 0
x162 0
x163 0
x164 0
x165 0
x166 0
x167 0
x168 0
x169 0
x170 0
x171 0
x172 0
x173 0
x174 0
x175 0
x176 0
x177 0
x178 0
x179 0
x180 0
x181 0
x182 0
x183 0
x184 0
x185 0
x186 0
x187 0
x188 0
x189 0
x190 0
x191 0
x192 0
x193 0
x194 0
x195 0
x196 0
x197 0
x198 0
x199 0
x200 0
x201 0
x202 0
x203 0
x204 0
x205 0
x206 0
x207 0
x208 0
x209 0
x210 0
x211 0
x212 0
x213 0
x214 0
x215 0
x216 0
x217 0
x218 0
x219 0
x220 0
x221 0
x222 0
x223 0
x224 0
x225 0
x226 0
x227 0
x228 0
x229 0
x230 0
x231 0
x232 0
x233 0
x234 0
x235 0
x236 0
x237 0
x238 0
x239 0
x240 0
x241 0
x242 0
x243 0
x244 0
x245 0
x246 0
x247 0
x248 0
x249 0
x250 0
x251 0
x252 0
x253 0
x254 0
x255 0
x256 0
x257 0
x258 0
x259 0
x260 0
x261 0
x262 0
x263 0
x264 0
x265 0
x266 0
x267 0
x268 0
x269 0
x270 0
x271 0
x272 0
x273 0
x274 0
x275 0
x276 0
x277 0
x278 0
x279 0
x280 0
x281 0
x282 0
x283 0
x284 0
x285 0
x286 0
x287 0
x288 0
x289 0
x290 0
x291 0
x292 0
x293 0
x294 0
x295 0
x296 0
x297 0
x298 0
x299 0
x300 0
x301 0
x302 0
x303 0
x304 0
x305 0
x306 0
x307 0
x308 0
x309 0
x310 0
x311 0
x312 0
x313 0
x314 0
x315 0
x316 0
x317 0
x318 0
x319 0
x320 0
x321 0
x322 0
x323 0
x324 0
x325 0
x326 0
x327 0
x328 0
x329 0
x330 0
x331 0
x332 0
x333 0
x334 0
x335 0
x336 0
x337 0
x338 0
x339 0
x340 0
x341 0
x342 0
x343 0
x344 0
x345 0
x346 0
x347 0
x348 0
x349 0
x350 0
x351 0
x352 0
x353 0
x354 0
x355 0
x356 0
x357 0
x358 0
x359 0
x360 0
x361 0
x362 0
x363 0
x364 0
x365 0
x366 0
x367 0
x368 0
x369 0
x370 0
x371 0
x372 0
x373 0
x374 0
x375 0
x376 0
x377 0
x378 0
x379 0
x380 0
x381 0
x382 0
x383 0
x384 0
x385 0
x386 0
x387 0
x388 0
x389 0
x390 0
x391 0
x392 0
x393 0
x394 0
x395 0
x396 0
x397 0
x398 0
x399 0
x400 0
x401 0
x402 0
x403 0
x404 0
x405 0
x406 0
x407 0
x408 0
x409 0
x410 0
x411 0
x412 0
x413 0
x414 0
x415 0
x416 0
x417 0
x418 0
x419 0
x420 0
x421 0
x422 0
x423 0
x424 0
x425 0
x426 0
x427 0
x428 0
x429 0
x430 0
x431 0
x432 0
x433 0
x434 0
x435 0
x436 0
x437 0
x438 0
x439 0
x440 0
x441 0
x442 0
x443 0
x444 0
x445 0
x446 0
x447 0
x448 0
x449 0
x450 0
x451 0
x452 0
x453 0
x454 0
x455 0
x456 0
x457 0
x458 0
x459 0
x460 0
x461 0
x462 0
x463 0
x464 0
x465 0
x466 0
x467 0
x468 0
x469 0
x470 0
x471 0
x472 0
x473 0
x474 0
x475 0
x476 0
x477 0
x478 0
x479 0
x480 0
x481 0
x482 0
x483 0
x484 0
x485 0
x486 0
x487 0
x488 0
x489 0
x490 0
x491 0
x492 0
x493 0
x494 0
x495 0
x496 1
x497 1
x498 1
x499 0
x500 0
x501 0
x502 0
x503 0
x504 0
x505 0
x506 0
x507 0
x508 0
x509 0
x510 0
x511 0
x512 0
x513 0
x514 0
x515 0
x516 0
x517 0
x518 0
x519 0
x520 0
x521 0
x522 0
x523 0
x524 0
x525 0
x526 0
x527 0
x528 0
x529 0
x530 0
x531 0
x532 0
x533 0
x534 0
x535 0
x536 0
x537 0
x538 0
x539 0
x540 0
x541 0
x542 0
x543 0
x544 0
x545 0
x546 0
x547 0
x548 0
x549 0
x550 0
x551 0
x552 0
x553 0
x554 0
x555 0
x556 0
x557 0
x558 0
x559 0
x560 0
x561 0
x562 0
x563 0
x564 0
x565 0
x566 0
x567 0
x568 0
x569 0
x570 0
x571 0
x572 0
x573 0
x574 0
x575 0
x576 0
x577 0
x578 0
x579 0
x580 0
x581 0
x582 0
x583 0
x584 0
x585 0
x586 0
x587 0
x588 0
x589 0
x590 0
x591 0
x592 0
x593 0
x594 0
x595 0
x596 0
x597 0
x598 0
x599 0
x600 0
x601 0
x602 0
x603 0
x604 0
x605 0
x606 0
x607 0
x608 0
x609 0
x610 0
x611 0
x612 0
x613 0
x614 0
x615 0
x616 0
x617 0
x618 0
x619 0
x620 0
x621 0
x622 0
x623 0
x624 0
x625 0
x626 0
x627 0
x628 0
x629 0
x630 0
x631 0
x632 0
x633 0
x634 0
x635 0
x636 0
x637 0
x638 0
x639 0
x640 0
x641 0
x642 0
x643 0
x644 0
x645 0
x646 0
x647 0
x648 0
x649 0
x650 0
x651 0
x652 0
x653 0
x654 0
x655 0
x656 0
x657 0
x658 0
x659 0
x660 0
x661 0
x662 0
x663 0
x664 0
x665 0
x666 0
x667 0
x668 0
x669 0
x670 0
x671 0
x672 0
x673 0
x674 0
x675 0
x676 0
x677 0
x678 0
x679 0
x680 0
x681 0
x682 0
x683 0
x684 0
x685 0
x686 0
x687 0
x688 0
x689 0
x690 0
x691 0
x692 0
x693 0
x694 0
x695 0
x696 0
x697 0
x698 0
x699 0
x700 0
x701 0
x702 0
x703 0
x704 0
x705 0
x706 0
x707 0
x708 0
x709 0
x710 0
x711 0
x712 0
x713 0
x714 0
x715 0
x716 0
x717 0
x718 0
x719 0
x720 0
x721 0
x722 0
x723 0
x724 0
x725 0
x726 0
x727 0
x728 0
x729 0
x730 0
x731 0
x732 0
x733 0
x734 0
x735 0
x736 0
x737 0
x738 0
x739 0
x740 0
x741 0
x742 0
x743 0
x744 0
x745 0
x746 0
x747 0
x748 0
x749 0
x750 0
x751 0
x752 0
x753 0
x754 0
x755 0
x756 0
x757 0
x758 0
x759 0
x760 0
x761 0
x762 0
x763 0
x764 0
x765 0
x766 0
x767 0
x768 0
x769 0
x770 0
x771 0
x772 0
x773 0
x774 0
x775 0
x776 0
x777 0
x778 0
x779 0
x780 0
x781 0
x782 0
x783 0
x784 0
x785 0
x786 0
x787 0
x788 0
x789 0
x790 0
x791 0
x792 0
x793 0
x794 0
x795 0
x796 0
x797 0
x798 0
x799 0
x800 0
x801 0
x802 0
x803 0
x804 0
x805 0
x806 0
x807 0
x808 0
x809 0
x810 0
x811 0
x812 0
x813 0
x814 0
x815 0
x816 0
x817 0
x818 0
x819 0
x820 0
x821 0
x822 0
x823 0
x824 0
x825 0
x826 0
x827 0
x828 0
x829 0
x830 0
x831 0
x832 0
x833 0
x834 0
x835 0
x836 0
x837 0
x838 0
x839 0
x840 0
x841 0
x842 0
x843 0
x844 0
x845 0
x846 0
x847 0
x848 0
x849 0
x850 0
x851 0
x852 0
x853 0
x854 0
x855 0
x856 0
x857 0
x858 -5.2878279857050905e-12
x859 0
x860 0
x861 0
x862 0
x863 0
x864 0
x865 0
x866 0
x867 0
x868 0
x869 0
x870 0
x871 0
x872 0
x873 0
x874 0
x875 0
x876 0
x877 0
x878 0
x879 0
x880 0
x881 0
x882 0
x883 0
x884 0
x885 0
x886 1.9999999999999822e+01
x887 20
x888 20
x889 20
x890 20
x891 20
x892 2.0000000000002736e+01
x893 20
x894 20
x895 20
x896 20
x897 20
x898 20
x899 20
x900 20
x901 20
x902 1.9999999999997669e+01
x903 20
x904 20
x905 20
x906 20
x907 20
x908 20
x909 20
x910 2.0000000000005286e+01
x911 1.9999999999999631e+01
x912 -1.90740389579901e-12
x913 0
x914 0
x915 0
x916 0
x917 0
x918 0
x919 0
x920 0
x921 0
x922 0
x923 0
x924 -1.3887076986941370e-12
x925 0
x926 0
x927 0
x928 0
x929 0
x930 0
x931 0
x932 0
x933 0
x934 -1.6906883613921796e-12
x935 0
x936 0
x937 0
x938 0
x939 0
x940 0
x941 0
x942 0
x943 0
x944 0
x945 0
x946 0
x947 0
x948 0
x949 0
x950 0
x951 0
x952 0
x953 0
x954 0
x955 0
x956 0
x957 0
x958 0
x959 0
x960 0
x961 0
x962 0
x963 0
x964 2.5000000000000190e+02
x965 1.3760000000000167e+02
x966 1.1520000000000005e+02
x967 2.5000000000000193e+02
x968 7.0400000000000034e+01
x969 4.7999999999998522e+01
x970 2.5000000000000193e+02
x971 25
x972 25
x973 25
x974 25
x975 2.4999999999999176e+01
x976 2.5000000000001389e+01
x977 25
x978 2.4999999999998067e+01
x979 2.4999999999999147e+01
x980 25
x981 25
x982 25
x983 25
x984 25
x985 25
x986 2.5000000000001691e+01
x987 25
x988 25
x989 25
x990 0
x991 0
x992 0
x993 0
x994 0
x995 0
x996 0
x997 0
x998 0
x999 0
x1000 0
x1001 -2.5083733254312507e-11
x1002 0
x1003 0
x1004 0
x1005 0
x1006 0
x1007 0
x1008 0
x1009 0
x1010 0
x1011 0
x1012 0
x1013 0
x1014 0
x1015 0
x1016 0
x1017 0
x1018 0
x1019 0
x1020 0
x1021 0
x1022 0
x1023 0
x1024 0
x1025 0
x1026 0
x1027 0
x1028 0
x1029 0
x1030 0
x1031 0
x1032 0
x1033 0
x1034 0
x1035 0
x1036 0
x1037 0
x1038 0
x1039 0
x1040 0
x1041 0
x1042 160
x1043 2.5000000000000193e+02
x1044 2.5000000000000193e+02
x1045 9.2800000000008509e+01
x1046 250
x1047 2.5000000000000193e+02
x1048 2.5599999999998090e+01
x1049 2.2820000000000005e+02
x1050 2.0579999999999995e+02
x1051 1.8340000000000003e+02
x1052 161
x1053 1.3860000000002518e+02
x1054 1.1619999999999999e+02
x1055 9.3800000000000011e+01
x1056 7.1399999999999977e+01
x1057 49
x1058 40
x1059 40
x1060 40
x1061 40
x1062 40
x1063 40
x1064 4.0000000000008555e+01
x1065 40
x1066 40
x1067 40
x1068 0
x1069 0
x1070 0
x1071 0
x1072 0
x1073 0
x1074 0
x1075 0
x1076 0
x1077 0
x1078 0
x1079 0
x1080 0
x1081 0
x1082 0
x1083 0
x1084 0
x1085 0
x1086 0
x1087 0
x1088 0
x1089 0
x1090 0
x1091 0
x1092 0
x1093 0
x1094 0
x1095 0
x1096 0
x1097 0
x1098 0
x1099 0
x1100 0
x1101 0
x1102 0
x1103 0
x1104 0
x1105 0
x1106 0
x1107 0
x1108 0
x1109 0
x1110 0
x1111 0
x1112 0
x1113 0
x1114 0
x1115 0
x1116 0
x1117 0
x1118 0
x1119 0
x1120 2.0000000000000004e+01
x1121 20
x1122 20
x1123 1.9999999999996248e+01
x1124 1.9999999999998067e+01
x1125 20
x1126 20
x1127 1.9999999999998067e+01
x1128 2.0000000000002050e+01
x1129 20
x1130 20
x1131 2.0000000000002736e+01
x1132 20
x1133 20
x1134 20
x1135 20
x1136 2.0000000000002341e+01
x1137 20
x1138 20
x1139 20
x1140 20
x1141 2.0000000000003531e+01
x1142 20
x1143 20
x1144 2.0000000000002064e+01
x1145 2.0000000000000171e+01
x1146 0
x1147 0
x1148 0
x1149 0
x1150 0
x1151 0
x1152 0
x1153 0
x1154 0
x1155 0
x1156 0
x1157 0
x1158 0
x1159 0
x1160 0
x1161 0
x1162 0
x1163 0
x1164 0
x1165 0
x1166 0
x1167 0
x1168 0
x1169 0
x1170 0
x1171 0
x1172 0
x1173 0
x1174 0
x1175 0
x1176 0
x1177 0
x1178 0
x1179 0
x1180 0
x1181 0
x1182 0
x1183 0
x1184 0
x1185 0
x1186 0
x1187 0
x1188 0
x1189 0
x1190 0
x1191 0
x1192 0
x1193 0
x1194 0
x1195 0
x1196 0
x1197 0
x1198 250
x1199 2.5000000000000193e+02
x1200 250
x1201 2.5000000000000193e+02
x1202 2.5000000000000193e+02
x1203 250
x1204 250
x1205 2.5000000000000193e+02
x1206 250
x1207 250
x1208 250
x1209 2.5000000000000193e+02
x1210 2.5000000000000193e+02
x1211 2.4999999999999926e+02
x1212 2.5000000000000193e+02
x1213 2.5000000000000193e+02
x1214 2.3659999999999488e+02
x1215 214.2
x1216 1.9180000000000004e+02
x1217 169.4
x1218 147
x1219 1.2460000000000002e+02
x1220 102.2
x1221 7.9799999999999983e+01
x1222 5.7400000000000404e+01
x1223 35
x1224 0
x1225 0
x1226 0
x1227 0
x1228 0
x1229 0
x1230 0
x1231 0
x1232 0
x1233 0
x1234 0
x1235 0
x1236 0
x1237 0
x1238 0
x1239 0
x1240 0
x1241 0
x1242 0
x1243 0
x1244 0
x1245 0
x1246 0
x1247 0
x1248 0
x1249 0
x1250 0
x1251 0
x1252 0
x1253 0
x1254 0
x1255 0
x1256 0
x1257 0
x1258 0
x1259 0
x1260 0
x1261 0
x1262 0
x1263 0
x1264 0
x1265 0
x1266 0
x1267 0
x1268 0
x1269 0
x1270 0
x1271 0
x1272 0
x1273 0
x1274 0
x1275 0
x1276 0
x1277 0
x1278 0
x1279 0
x1280 0
x1281 0
x1282 0
x1283 0
x1284 0
x1285 0
x1286 0
x1287 0
x1288 0
x1289 0
x1290 0
x1291 0
x1292 0
x1293 0
x1294 0
x1295 0
x1296 0
x1297 0
x1298 0
x1299 0
x1300 0
x1301 0
x1302 0
x1303 0
x1304 0
x1305 0
x1306 0
x1307 0
x1308 0
x1309 0
x1310 0
x1311 0
x1312 0
x1313 0
x1314 0
x1315 0
x1316 0
x1317 0
x1318 0
x1319 0
x1320 0
x1321 0
x1322 0
x1323 0
x1324 0
x1325 0
x1326 0
x1327 0
x1328 0
x1329 0
x1330 0
x1331 0
x1332 0
x1333 0
x1334 0
x1335 0
x1336 0
x1337 0
x1338 0
x1339 0
x1340 0
x1341 0
x1342 0
x1343 0
x1344 0
x1345 0
x1346 0
x1347 0
x1348 0
x1349 0
x1350 0
x1351 0
x1352 0
x1353 0
x1354 0
x1355 0
x1356 0
x1357 0
x1358 0
x1359 0
x1360 0
x1361 0
x1362 0
x1363 0
x1364 0
x1365 0
x1366 0
x1367 0
x1368 0
x1369 0
x1370 0
x1371 0
x1372 0
x1373 0
x1374 0
x1375 0
x1376 0
x1377 0
x1378 0
x1379 0
x1380 0
x1381 0
x1382 0
x1383 0
x1384 0
x1385 0
x1386 0
x1387 0
x1388 0
x1389 0
x1390 0
x1391 0
x1392 0
x1393 0
x1394 0
x1395 0
x1396 0
x1397 0
x1398 0
x1399 0
x1400 0
x1401 0
x1402 0
x1403 0
x1404 0
x1405 0
x1406 0
x1407 0
x1408 0
x1409 0
x1410 0
x1411 0
x1412 0
x1413 0
x1414 0
x1415 0
x1416 0
x1417 0
x1418 0
x1419 0
x1420 0
x1421 0
x1422 0
x1423 0
x1424 0
x1425 0
x1426 0
x1427 0
x1428 0
x1429 0
x1430 0
x1431 0
x1432 0
x1433 0
x1434 0
x1435 0
x1436 0
x1437 0
x1438 0
x1439 0
x1440 0
x1441 0
x1442 0
x1443 0
x1444 0
x1445 0
x1446 0
x1447 0
x1448 0
x1449 0
x1450 0
x1451 0
x1452 0
x1453 0
x1454 0
x1455 0
x1456 0
x1457 0
x1458 0
x1459 0
x1460 0
x1461 0
x1462 0
x1463 0
x1464 0
x1465 0
x1466 0
x1467 0
x1468 0
x1469 0
x1470 0
x1471 0
x1472 0
x1473 0
x1474 0
x1475 0
x1476 0
x1477 0
x1478 0
x1479 0
x1480 0
x1481 0
x1482 0
x1483 0
x1484 0
x1485 0
x1486 0
x1487 0
x1488 0
x1489 0
x1490 0
x1491 0
x1492 0
x1493 0
x1494 0
x1495 0
x1496 0
x1497 0
x1498 0
x1499 0
x1500 0
x1501 0
x1502 0
x1503 0
x1504 0
x1505 0
x1506 0
x1507 0
x1508 0
x1509 0
x1510 130
x1511 40
x1512 40
x1513 197.2
x1514 40
x1515 23
x1516 2.2500000000000193e+02
x1517 0
x1518 0
x1519 0
x1520 0
x1521 0
x1522 0
x1523 0
x1524 0
x1525 0
x1526 0
x1527 0
x1528 0
x1529 0
x1530 0
x1531 0
x1532 0
x1533 0
x1534 0
x1535 0
x1536 0
x1537 0
x1538 0
x1539 0
x1540 0
x1541 0
x1542 0
x1543 0
x1544 0
x1545 0
x1546 0
x1547 0
x1548 0
x1549 0
x1550 0
x1551 0
x1552 0
x1553 0
x1554 0
x1555 0
x1556 0
x1557 0
x1558 0
x1559 0
x1560 0
x1561 0
x1562 0
x1563 0
x1564 0
x1565 0
x1566 0
x1567 0
x1568 0
x1569 0
x1570 0
x1571 0
x1572 0
x1573 0
x1574 0
x1575 0
x1576 0
x1577 0
x1578 0
x1579 0
x1580 0
x1581 0
x1582 0
x1583 0
x1584 0
x1585 0
x1586 0
x1587 0
x1588 0
x1589 0
x1590 0
x1591 0
x1592 0
x1593 0
x1594 0
x1595 0
x1596 0
x1597 0
x1598 0
x1599 0
x1600 0
x1601 0
x1602 0
x1603 0
x1604 0
x1605 0
x1606 0
x1607 0
x1608 0
x1609 0
x1610 0
x1611 0
x1612 0
x1613 0
x1614 0
x1615 0
x1616 0
x1617 0
x1618 0
x1619 0
x1620 0
x1621 0
x1622 0
x1623 0
x1624 0
x1625 0
x1626 0
x1627 0
x1628 0
x1629 0
x1630 0
x1631 0
x1632 0
x1633 0
x1634 0
x1635 0
x1636 0
x1637 0
x1638 0
x1639 0
x1640 0
x1641 0
x1642 0
x1643 0
x1644 0
x1645 0
x1646 0
x1647 0
x1648 0
x1649 0
x1650 0
x1651 0
x1652 0
x1653 0
x1654 0
x1655 0
x1656 0
x1657 0
x1658 0
x1659 0
x1660 0
x1661 0
x1662 0
x1663 0
x1664 0
x1665 0
x1666 95
x1667 7.2600000000001671e+01
x1668 5.0200000000000045e+01
x1669 2.7800000000000011e+01
x1670 5.4000000000000341e+00
x1671 0
x1672 0
x1673 0
x1674 0
x1675 0
x1676 0
x1677 0
x1678 0
x1679 0
x1680 0
x1681 0
x1682 0
x1683 0
x1684 0
x1685 0
x1686 0
x1687 0
x1688 0
x1689 0
x1690 0
x1691 0
x1692 0
x1693 0
x1694 0
x1695 0
x1696 0
x1697 0
x1698 0
x1699 0
x1700 0
x1701 0
x1702 0
x1703 0
x1704 0
x1705 0
x1706 0
x1707 0
x1708 0
x1709 0
x1710 0
x1711 0
x1712 0
x1713 0
x1714 0
x1715 0
x1716 0
x1717 0
x1718 0
x1719 0
x1720 0
x1721 0
x1722 0
x1723 0
x1724 0
x1725 0
x1726 0
x1727 0
x1728 0
x1729 0
x1730 0
x1731 0
x1732 0
x1733 0
x1734 0
x1735 0
x1736 0
x1737 0
x1738 0
x1739 0
x1740 0
x1741 0
x1742 0
x1743 0
x1744 0
x1745 0
x1746 0
x1747 0
x1748 0
x1749 0
x1750 0
x1751 0
x1752 0
x1753 0
x1754 0
x1755 0
x1756 0
x1757 0
x1758 0
x1759 0
x1760 0
x1761 0
x1762 0
x1763 0
x1764 0
x1765 0
x1766 0
x1767 0
x1768 0
x1769 0
x1770 0
x1771 0
x1772 0
x1773 0
x1774 0
x1775 0
x1776 0
x1777 0
x1778 0
x1779 0
x1780 0
x1781 0
x1782 0
x1783 0
x1784 0
x1785 0
x1786 0
x1787 0
x1788 0
x1789 0
x1790 0
x1791 0
x1792 0
x1793 0
x1794 0
x1795 0
x1796 0
x1797 0
x1798 0
x1799 0
x1800 0
x1801 0
x1802 0
x1803 0
x1804 0
x1805 0
x1806 0
x1807 0
x1808 0
x1809 0
x1810 0
x1811 0
x1812 0
x1813 0
x1814 0
x1815 0
x1816 0
x1817 0
x1818 0
x1819 0
x1820 0
x1821 0
x1822 0
x1823 0
x1824 0
x1825 0
x1826 0
x1827 0
x1828 0
x1829 0
x1830 0
x1831 0
x1832 0
x1833 0
x1834 0
x1835 0
x1836 0
x1837 0
x1838 0
x1839 0
x1840 0
x1841 0
x1842 0
x1843 0
x1844 0
x1845 0
x1846 0
x1847 0
x1848 0
x1849 0
x1850 0
x1851 0
x1852 0
x1853 0
x1854 0
x1855 0
x1856 0
x1857 0
x1858 0
x1859 0
x1860 0
x1861 0
x1862 0
x1863 0
x1864 0
x1865 0
x1866 0
x1867 0
x1868 0
x1869 0
x1870 0
x1871 0
x1872 0
x1873 0
x1874 0
x1875 0
x1876 0
x1877 0
x1878 0
x1879 0
x1880 0
x1881 0
x1882 0
x1883 0
x1884 0
x1885 0
x1886 0
x1887 0
x1888 0
x1889 0
x1890 0
x1891 0
x1892 0
x1893 0
x1894 0
x1895 0
x1896 0
x1897 0
x1898 0
x1899 0
x1900 250
x1901 250
x1902 2.5000000000000193e+02
x1903 2.5000000000000011e+02
x1904 250
x1905 233
x1906 2.1060000000000002e+02
x1907 1.8820000000000005e+02
x1908 1.6579999999999995e+02
x1909 1.4340000000000003e+02
x1910 121
x1911 9.8600000000000080e+01
x1912 7.6199999999999989e+01
x1913 5.3800000000000011e+01
x1914 3.1399999999999977e+01
x1915 9.0000000000058780e+00
x1916 0
x1917 0
x1918 0
x1919 0
x1920 0
x1921 0
x1922 0
x1923 0
x1924 0
x1925 0
x1926 0
x1927 0
x1928 0
x1929 0
x1930 0
x1931 0
x1932 0
x1933 0
x1934 0
x1935 0
x1936 0
x1937 0
x1938 0
x1939 0
x1940 0
x1941 0
x1942 0
x1943 0
x1944 0
x1945 0
x1946 0
x1947 0
x1948 0
x1949 0
x1950 0
x1951 0
x1952 0
x1953 0
x1954 0
x1955 0
x1956 0
x1957 0
x1958 0
x1959 0
x1960 0
x1961 0
x1962 0
x1963 0
x1964 0
x1965 0
x1966 0
x1967 0
x1968 0
x1969 0
x1970 0
x1971 0
x1972 0
x1973 0
x1974 0
x1975 0
x1976 0
x1977 0
x1978 0
x1979 0
x1980 0
x1981 0
x1982 0
x1983 0
x1984 0
x1985 0
x1986 0
x1987 0
x1988 0
x1989 0
x1990 0
x1991 0
x1992 0
x1993 0
x1994 0
x1995 0
x1996 0
x1997 0
x1998 0
x1999 0
x2000 0
x2001 0
x2002 0
x2003 0
x2004 0
x2005 0
x2006 0
x2007 0
x2008 0
x2009 0
x2010 0
x2011 0
x2012 0
x2013 0
x2014 0
x2015 0
x2016 0
x2017 0
x2018 0
x2019 0
x2020 0
x2021 0
x2022 0
x2023 0
x2024 0
x2025 0
x2026 0
x2027 0
x2028 0
x2029 0
x2030 0
x2031 0
x2032 0
x2033 0
x2034 0
x2035 0
x2036 0
x2037 0
x2038 0
x2039 0
x2040 0
x2041 0
x2042 0
x2043 0
x2044 0
x2045 0
x2046 0
x2047 0
x2048 0
x2049 0
x2050 0
x2051 0
x2052 0
x2053 0
x2054 0
x2055 0
x2056 310
x2057 287.6
x2058 2.6520000000000005e+02
x2059 2.4280000000000007e+02
x2060 2.2040000000000003e+02
x2061 215
x2062 215
x2063 215
x2064 215
x2065 215
x2066 215
x2067 2.1499999999999864e+02
x2068 215
x2069 2.1499999999999926e+02
x2070 215
x2071 215
x2072 2.0159999999999934e+02
x2073 179.2
x2074 1.5680000000000004e+02
x2075 134.4
x2076 112
x2077 8.9600000000000023e+01
x2078 6.7199999999999193e+01
x2079 4.4799999999998647e+01
x2080 2.2400000000000020e+01
x2081 0
x2082 5000
x2083 5000
x2084 5000
x2085 5000
x2086 5000
x2087 5000
x2088 5000
x2089 5000
x2090 5000
x2091 5000
x2092 5000
x2093 5000
x2094 5000
x2095 5000
x2096 5000
x2097 5000
x2098 5000
x2099 5000
x2100 5000
x2101 4856
x2103 1
x2105 1
x2107 1
x2109 1
x2111 1
x2113 1
x2115 1
x2117 1
x2119 1
x2121 1
x2123 1
x2125 1
x2127 1
x2129 1
x2131 1
x2133 1
x2135 1
x2137 1
x2139 1
x2141 1
x2143 1
x2145 1
x2147 1
x2149 1
x2151 1
x2153 1
x2155 1
x2157 1
x2159 1
x2161 1
x2163 1
x2165 1
x2167 1
x2169 1
x2171 1
x2173 1
x2175 1
x2177 1
x2179 1
x2181 1
x2183 1
x2185 1
x2187 1
x2189 1
x2191 1
x2193 1
x2195 1
x2197 1
x2199 1
x2201 1
x2203 1
x2205 1
x2207 1
x2209 1
x2211 1
x2213 1
x2215 1
x2217 1
x2219 1
x2221 1
x2223 1
x2225 1
x2227 1
x2229 1
x2231 1
x2233 1
x2235 1
x2237 1
x2239 1
x2241 1
x2243 1
x2245 1
x2247 1
x2249 1
x2251 1
x2253 1
x2255 1
x2257 1
x2259 1
x2261 1
x2263 1
x2265 1
x2267 1
x2269 1
x2271 1
x2273 1
x2275 1
x2277 1
x2279 1
x2281 1
x2283 1
x2285 1
x2287 1
x2289 1
x2291 1
x2293 1
x2295 1
x2297 1
x2299 1
x2301 1
x2303 1
x2305 1
x2307 1
x2309 1
x2311 1
x2313 1
x2315 1
x2317 1
x2319 1
x2321 1
x2323 1
x2325 1
x2327 1
x2329 1
x2331 1
x2333 1
x2335 1
x2337 1
x2339 1
x2341 1
x2343 1
x2345 1
x2347 1
x2349 1
x2351 1
x2353 1
x2355 1
x2357 1
x2359 1
x2361 1
x3429 1400
x3431 140
x3433 140
x3435 140
x3437 140
x3439 140
x3441 140
x3443 140
x3445 140
x3447 140
x3449 140
x3451 140
x3453 140
x3455 140
x3457 140
x3459 140
x3461 140
x3463 140
x3465 140
x3467 140
x3469 140
x3471 140
x3473 140
x3475 140
x3477 140
x3479 140
